n_res = 4;
rc = [ 19, 37, 16, 29 ];
n_tasks = 60;
d = [ 5, 10, 10, 9, 4, 7, 10, 5, 3, 5, 2, 6, 2, 7, 7, 8, 1, 9, 5, 6, 2, 10, 2, 5, 8, 8, 2, 1, 2, 9, 1, 1, 6, 3, 5, 8, 6, 3, 3, 4, 4, 6, 5, 6, 7, 9, 9, 8, 2, 7, 4, 10, 3, 9, 4, 4, 3, 5, 8, 5 ];
rr = [| 0, 0, 0, 7, 3, 0, 0, 0, 0, 0, 0, 0, 5, 0, 2, 7, 5, 0, 2, 0, 0, 0, 0, 0, 0, 0, 0, 0, 0, 0, 0, 2, 0, 0, 0, 2, 0, 0, 0, 0, 0, 0, 0, 6, 0, 0, 0, 4, 0, 0, 0, 0, 0, 0, 0, 0, 0, 10, 0, 0
      | 0, 0, 0, 0, 0, 0, 7, 0, 0, 0, 0, 5, 0, 0, 0, 0, 0, 0, 0, 0, 0, 10, 0, 3, 8, 10, 9, 0, 0, 0, 5, 0, 6, 8, 0, 0, 0, 0, 0, 5, 8, 0, 0, 0, 7, 0, 5, 0, 0, 6, 0, 3, 0, 5, 0, 9, 0, 0, 9, 8
      | 3, 0, 0, 0, 0, 0, 0, 0, 0, 0, 0, 0, 0, 0, 0, 0, 0, 6, 0, 0, 1, 0, 0, 0, 0, 0, 0, 0, 1, 5, 0, 0, 0, 0, 0, 0, 0, 3, 0, 0, 0, 0, 6, 0, 0, 0, 0, 0, 0, 0, 10, 0, 0, 0, 0, 0, 6, 0, 0, 0
      | 0, 9, 10, 0, 0, 5, 0, 1, 6, 3, 1, 0, 0, 5, 0, 0, 0, 0, 0, 4, 0, 0, 1, 0, 0, 0, 0, 6, 0, 0, 0, 0, 0, 0, 9, 0, 4, 0, 6, 0, 0, 1, 0, 0, 0, 7, 0, 0, 2, 0, 0, 0, 6, 0, 7, 0, 0, 0, 0, 0 |];
suc = [ { 6, 8, 20 },
       { 21 },
       { 4, 5, 7 },
       { 41, 44, 50 },
       { 9, 16, 58 },
       { 37, 40 },
       { 11, 22, 26 },
       { 10, 12, 15 },
       { 13, 14, 38 },
       { 19, 46 },
       { 12, 27 },
       { 17, 24 },
       { 18, 23, 25 },
       { 19, 35, 42 },
       { 31 },
       { 28 },
       { 53, 58 },
       { 26, 30 },
       { 34, 36, 48 },
       { 39, 47 },
       { 22, 41, 43 },
       { 39 },
       { 33, 42, 46 },
       { 45 },
       { 43 },
       { 32, 35 },
       { 31 },
       { 29 },
       { 35, 39, 59 },
       { 36, 43 },
       { 57 },
       { 33, 52 },
       { 37 },
       { 49, 57 },
       { 41, 55 },
       { 47 },
       { 50, 54 },
       { 40, 53 },
       { 42, 49, 56 },
       { 46 },
       { 60 },
       { 48 },
       { 45, 50 },
       { 45, 51 },
       { 48, 54 },
       { 47, 49 },
       { 52, 54, 56 },
       { 55 },
       { 55 },
       { 53 },
       { 52, 58 },
       { 59 },
       { 56 },
       { 57 },
       { 60 },
       { 60 },
       { 59 },
       {  },
       {  },
       {  } ];
